p cnf 200 1110
-101 -71 0
-101 -86 0
-101 12 0
-101 55 0
-101 50 0
-101 26 0
-101 54 0
-101 -65 0
-101 14 0
-101 -33 0
101 71 86 -12 -55 -50 -26 -54 65 -14 33 0
-102 -52 0
-102 -53 0
-102 -18 0
-102 -32 0
-102 -71 0
-102 45 0
-102 -58 0
-102 64 0
-102 51 0
-102 33 0
102 52 53 18 32 71 -45 58 -64 -51 -33 0
-103 -83 0
-103 58 0
-103 4 0
-103 30 0
-103 50 0
-103 41 0
-103 8 0
-103 -35 0
-103 88 0
-103 -68 0
103 83 -58 -4 -30 -50 -41 -8 35 -88 68 0
-104 74 0
-104 -57 0
-104 92 0
-104 -59 0
-104 -11 0
-104 -64 0
-104 61 0
-104 19 0
-104 -72 0
-104 54 0
104 -74 57 -92 59 11 64 -61 -19 72 -54 0
-105 -83 0
-105 -27 0
-105 -4 0
-105 -28 0
-105 3 0
-105 -91 0
-105 -57 0
-105 -30 0
-105 -49 0
-105 44 0
105 83 27 4 28 -3 91 57 30 49 -44 0
-106 -64 0
-106 -2 0
-106 -19 0
-106 33 0
-106 36 0
-106 73 0
-106 -1 0
-106 -17 0
-106 -8 0
-106 18 0
106 64 2 19 -33 -36 -73 1 17 8 -18 0
-107 52 0
-107 48 0
-107 -53 0
-107 72 0
-107 -89 0
-107 21 0
-107 -11 0
-107 -73 0
-107 -97 0
-107 -83 0
107 -52 -48 53 -72 89 -21 11 73 97 83 0
-108 -81 0
-108 -47 0
-108 -12 0
-108 21 0
-108 20 0
-108 80 0
-108 -4 0
-108 -88 0
-108 6 0
-108 -43 0
108 81 47 12 -21 -20 -80 4 88 -6 43 0
-109 49 0
-109 33 0
-109 -12 0
-109 26 0
-109 92 0
-109 29 0
-109 78 0
-109 84 0
-109 5 0
-109 7 0
109 -49 -33 12 -26 -92 -29 -78 -84 -5 -7 0
-110 67 0
-110 -1 0
-110 22 0
-110 -50 0
-110 -71 0
-110 63 0
-110 7 0
-110 -61 0
-110 -75 0
-110 -73 0
110 -67 1 -22 50 71 -63 -7 61 75 73 0
101 102 103 104 105 106 107 108 109 110 0
-111 -16 0
-111 -38 0
-111 55 0
-111 78 0
-111 1 0
-111 69 0
-111 -31 0
-111 -8 0
-111 86 0
-111 33 0
111 16 38 -55 -78 -1 -69 31 8 -86 -33 0
-112 -63 0
-112 64 0
-112 8 0
-112 -37 0
-112 84 0
-112 48 0
-112 43 0
-112 33 0
-112 -9 0
-112 -59 0
112 63 -64 -8 37 -84 -48 -43 -33 9 59 0
-113 38 0
-113 96 0
-113 74 0
-113 82 0
-113 -55 0
-113 -21 0
-113 87 0
-113 -46 0
-113 88 0
-113 64 0
113 -38 -96 -74 -82 55 21 -87 46 -88 -64 0
-114 100 0
-114 69 0
-114 90 0
-114 67 0
-114 65 0
-114 10 0
-114 -34 0
-114 -83 0
-114 -92 0
-114 -7 0
114 -100 -69 -90 -67 -65 -10 34 83 92 7 0
-115 96 0
-115 15 0
-115 7 0
-115 83 0
-115 -38 0
-115 52 0
-115 -97 0
-115 63 0
-115 16 0
-115 -53 0
115 -96 -15 -7 -83 38 -52 97 -63 -16 53 0
-116 -90 0
-116 38 0
-116 35 0
-116 -59 0
-116 -9 0
-116 -51 0
-116 19 0
-116 57 0
-116 87 0
-116 -88 0
116 90 -38 -35 59 9 51 -19 -57 -87 88 0
-117 -46 0
-117 100 0
-117 -19 0
-117 -2 0
-117 97 0
-117 62 0
-117 77 0
-117 13 0
-117 27 0
-117 87 0
117 46 -100 19 2 -97 -62 -77 -13 -27 -87 0
-118 65 0
-118 -26 0
-118 35 0
-118 -10 0
-118 -66 0
-118 -88 0
-118 53 0
-118 -22 0
-118 -97 0
-118 -2 0
118 -65 26 -35 10 66 88 -53 22 97 2 0
-119 17 0
-119 -43 0
-119 62 0
-119 25 0
-119 84 0
-119 -95 0
-119 67 0
-119 80 0
-119 40 0
-119 79 0
119 -17 43 -62 -25 -84 95 -67 -80 -40 -79 0
-120 -1 0
-120 -57 0
-120 -49 0
-120 2 0
-120 24 0
-120 63 0
-120 16 0
-120 -79 0
-120 44 0
-120 67 0
120 1 57 49 -2 -24 -63 -16 79 -44 -67 0
111 112 113 114 115 116 117 118 119 120 0
-121 11 0
-121 -83 0
-121 89 0
-121 -97 0
-121 49 0
-121 -75 0
-121 -93 0
-121 45 0
-121 43 0
-121 78 0
121 -11 83 -89 97 -49 75 93 -45 -43 -78 0
-122 -88 0
-122 3 0
-122 11 0
-122 47 0
-122 66 0
-122 -10 0
-122 -68 0
-122 8 0
-122 81 0
-122 34 0
122 88 -3 -11 -47 -66 10 68 -8 -81 -34 0
-123 23 0
-123 -78 0
-123 -46 0
-123 25 0
-123 -47 0
-123 -63 0
-123 -13 0
-123 -59 0
-123 42 0
-123 20 0
123 -23 78 46 -25 47 63 13 59 -42 -20 0
-124 -82 0
-124 -95 0
-124 34 0
-124 -2 0
-124 76 0
-124 -74 0
-124 81 0
-124 -67 0
-124 27 0
-124 21 0
124 82 95 -34 2 -76 74 -81 67 -27 -21 0
-125 74 0
-125 -31 0
-125 3 0
-125 -19 0
-125 97 0
-125 -16 0
-125 -56 0
-125 58 0
-125 59 0
-125 -41 0
125 -74 31 -3 19 -97 16 56 -58 -59 41 0
-126 5 0
-126 -77 0
-126 -28 0
-126 12 0
-126 -83 0
-126 -97 0
-126 -39 0
-126 -53 0
-126 -13 0
-126 41 0
126 -5 77 28 -12 83 97 39 53 13 -41 0
-127 -10 0
-127 76 0
-127 44 0
-127 23 0
-127 25 0
-127 -36 0
-127 53 0
-127 -31 0
-127 33 0
-127 -67 0
127 10 -76 -44 -23 -25 36 -53 31 -33 67 0
-128 19 0
-128 97 0
-128 -22 0
-128 -78 0
-128 4 0
-128 -52 0
-128 31 0
-128 60 0
-128 -25 0
-128 35 0
128 -19 -97 22 78 -4 52 -31 -60 25 -35 0
-129 38 0
-129 75 0
-129 44 0
-129 51 0
-129 -99 0
-129 -8 0
-129 47 0
-129 84 0
-129 15 0
-129 -61 0
129 -38 -75 -44 -51 99 8 -47 -84 -15 61 0
-130 -60 0
-130 8 0
-130 7 0
-130 -98 0
-130 -12 0
-130 92 0
-130 52 0
-130 6 0
-130 -42 0
-130 -63 0
130 60 -8 -7 98 12 -92 -52 -6 42 63 0
121 122 123 124 125 126 127 128 129 130 0
-131 -52 0
-131 -23 0
-131 -50 0
-131 -21 0
-131 -97 0
-131 83 0
-131 -51 0
-131 19 0
-131 44 0
-131 -58 0
131 52 23 50 21 97 -83 51 -19 -44 58 0
-132 -85 0
-132 82 0
-132 64 0
-132 78 0
-132 -18 0
-132 17 0
-132 -20 0
-132 -7 0
-132 87 0
-132 13 0
132 85 -82 -64 -78 18 -17 20 7 -87 -13 0
-133 -59 0
-133 76 0
-133 35 0
-133 94 0
-133 -63 0
-133 -61 0
-133 -42 0
-133 84 0
-133 -20 0
-133 97 0
133 59 -76 -35 -94 63 61 42 -84 20 -97 0
-134 -12 0
-134 56 0
-134 8 0
-134 -18 0
-134 6 0
-134 -71 0
-134 89 0
-134 -53 0
-134 -81 0
-134 51 0
134 12 -56 -8 18 -6 71 -89 53 81 -51 0
-135 100 0
-135 70 0
-135 -79 0
-135 87 0
-135 -1 0
-135 -93 0
-135 -95 0
-135 -53 0
-135 -54 0
-135 -21 0
135 -100 -70 79 -87 1 93 95 53 54 21 0
-136 22 0
-136 -47 0
-136 -19 0
-136 87 0
-136 -86 0
-136 32 0
-136 9 0
-136 -27 0
-136 80 0
-136 -53 0
136 -22 47 19 -87 86 -32 -9 27 -80 53 0
-137 -85 0
-137 -77 0
-137 99 0
-137 62 0
-137 -75 0
-137 -71 0
-137 -8 0
-137 -49 0
-137 -74 0
-137 -1 0
137 85 77 -99 -62 75 71 8 49 74 1 0
-138 -94 0
-138 -99 0
-138 60 0
-138 -19 0
-138 9 0
-138 -72 0
-138 -55 0
-138 -54 0
-138 100 0
-138 73 0
138 94 99 -60 19 -9 72 55 54 -100 -73 0
-139 -8 0
-139 -49 0
-139 92 0
-139 -16 0
-139 -96 0
-139 -23 0
-139 -28 0
-139 78 0
-139 51 0
-139 91 0
139 8 49 -92 16 96 23 28 -78 -51 -91 0
-140 97 0
-140 -58 0
-140 -91 0
-140 -34 0
-140 -73 0
-140 -40 0
-140 24 0
-140 5 0
-140 53 0
-140 30 0
140 -97 58 91 34 73 40 -24 -5 -53 -30 0
131 132 133 134 135 136 137 138 139 140 0
-141 -94 0
-141 81 0
-141 -84 0
-141 -69 0
-141 -46 0
-141 51 0
-141 -25 0
-141 54 0
-141 1 0
-141 97 0
141 94 -81 84 69 46 -51 25 -54 -1 -97 0
-142 73 0
-142 53 0
-142 -14 0
-142 94 0
-142 -97 0
-142 -2 0
-142 36 0
-142 -92 0
-142 55 0
-142 -82 0
142 -73 -53 14 -94 97 2 -36 92 -55 82 0
-143 59 0
-143 -76 0
-143 -13 0
-143 18 0
-143 -27 0
-143 52 0
-143 89 0
-143 24 0
-143 97 0
-143 -100 0
143 -59 76 13 -18 27 -52 -89 -24 -97 100 0
-144 -96 0
-144 -23 0
-144 -41 0
-144 -4 0
-144 1 0
-144 -10 0
-144 -62 0
-144 94 0
-144 -76 0
-144 53 0
144 96 23 41 4 -1 10 62 -94 76 -53 0
-145 98 0
-145 77 0
-145 5 0
-145 45 0
-145 -41 0
-145 -22 0
-145 32 0
-145 58 0
-145 -51 0
-145 -48 0
145 -98 -77 -5 -45 41 22 -32 -58 51 48 0
-146 61 0
-146 -64 0
-146 63 0
-146 21 0
-146 99 0
-146 16 0
-146 -88 0
-146 -53 0
-146 50 0
-146 70 0
146 -61 64 -63 -21 -99 -16 88 53 -50 -70 0
-147 83 0
-147 40 0
-147 11 0
-147 -55 0
-147 10 0
-147 -100 0
-147 80 0
-147 -2 0
-147 -56 0
-147 -90 0
147 -83 -40 -11 55 -10 100 -80 2 56 90 0
-148 -58 0
-148 -72 0
-148 91 0
-148 11 0
-148 64 0
-148 49 0
-148 56 0
-148 -97 0
-148 -79 0
-148 -34 0
148 58 72 -91 -11 -64 -49 -56 97 79 34 0
-149 -64 0
-149 -85 0
-149 49 0
-149 -6 0
-149 -34 0
-149 -8 0
-149 76 0
-149 -83 0
-149 -41 0
-149 -88 0
149 64 85 -49 6 34 8 -76 83 41 88 0
-150 10 0
-150 8 0
-150 -65 0
-150 -21 0
-150 52 0
-150 -58 0
-150 94 0
-150 22 0
-150 -45 0
-150 -93 0
150 -10 -8 65 21 -52 58 -94 -22 45 93 0
141 142 143 144 145 146 147 148 149 150 0
-151 57 0
-151 -82 0
-151 -35 0
-151 87 0
-151 -49 0
-151 46 0
-151 86 0
-151 93 0
-151 -83 0
-151 84 0
151 -57 82 35 -87 49 -46 -86 -93 83 -84 0
-152 5 0
-152 -65 0
-152 23 0
-152 52 0
-152 86 0
-152 80 0
-152 -90 0
-152 -49 0
-152 -6 0
-152 55 0
152 -5 65 -23 -52 -86 -80 90 49 6 -55 0
-153 69 0
-153 -93 0
-153 53 0
-153 2 0
-153 81 0
-153 68 0
-153 -10 0
-153 72 0
-153 -86 0
-153 90 0
153 -69 93 -53 -2 -81 -68 10 -72 86 -90 0
-154 -90 0
-154 16 0
-154 46 0
-154 98 0
-154 31 0
-154 35 0
-154 -100 0
-154 -15 0
-154 -66 0
-154 93 0
154 90 -16 -46 -98 -31 -35 100 15 66 -93 0
-155 31 0
-155 36 0
-155 -6 0
-155 -15 0
-155 50 0
-155 -74 0
-155 21 0
-155 51 0
-155 35 0
-155 82 0
155 -31 -36 6 15 -50 74 -21 -51 -35 -82 0
-156 92 0
-156 -57 0
-156 10 0
-156 -25 0
-156 -40 0
-156 38 0
-156 -73 0
-156 37 0
-156 81 0
-156 -56 0
156 -92 57 -10 25 40 -38 73 -37 -81 56 0
-157 52 0
-157 -86 0
-157 15 0
-157 22 0
-157 -75 0
-157 -84 0
-157 -37 0
-157 -91 0
-157 -64 0
-157 -57 0
157 -52 86 -15 -22 75 84 37 91 64 57 0
-158 -56 0
-158 100 0
-158 -72 0
-158 53 0
-158 11 0
-158 -37 0
-158 -82 0
-158 92 0
-158 22 0
-158 86 0
158 56 -100 72 -53 -11 37 82 -92 -22 -86 0
-159 -97 0
-159 80 0
-159 -72 0
-159 27 0
-159 -96 0
-159 42 0
-159 22 0
-159 69 0
-159 -14 0
-159 99 0
159 97 -80 72 -27 96 -42 -22 -69 14 -99 0
-160 51 0
-160 76 0
-160 58 0
-160 -24 0
-160 -16 0
-160 -73 0
-160 1 0
-160 23 0
-160 -11 0
-160 -43 0
160 -51 -76 -58 24 16 73 -1 -23 11 43 0
151 152 153 154 155 156 157 158 159 160 0
-161 -7 0
-161 -23 0
-161 45 0
-161 -100 0
-161 35 0
-161 57 0
-161 -1 0
-161 -10 0
-161 51 0
-161 -63 0
161 7 23 -45 100 -35 -57 1 10 -51 63 0
-162 58 0
-162 3 0
-162 -17 0
-162 -79 0
-162 -8 0
-162 -45 0
-162 40 0
-162 -37 0
-162 50 0
-162 -32 0
162 -58 -3 17 79 8 45 -40 37 -50 32 0
-163 -23 0
-163 56 0
-163 20 0
-163 54 0
-163 76 0
-163 -41 0
-163 -27 0
-163 -42 0
-163 -18 0
-163 24 0
163 23 -56 -20 -54 -76 41 27 42 18 -24 0
-164 62 0
-164 93 0
-164 13 0
-164 75 0
-164 44 0
-164 -7 0
-164 -74 0
-164 -20 0
-164 18 0
-164 -12 0
164 -62 -93 -13 -75 -44 7 74 20 -18 12 0
-165 70 0
-165 -88 0
-165 -76 0
-165 -49 0
-165 37 0
-165 -12 0
-165 -92 0
-165 2 0
-165 -29 0
-165 -36 0
165 -70 88 76 49 -37 12 92 -2 29 36 0
-166 88 0
-166 84 0
-166 2 0
-166 72 0
-166 -3 0
-166 1 0
-166 33 0
-166 -68 0
-166 44 0
-166 -76 0
166 -88 -84 -2 -72 3 -1 -33 68 -44 76 0
-167 79 0
-167 -61 0
-167 -60 0
-167 -72 0
-167 12 0
-167 49 0
-167 -30 0
-167 2 0
-167 -26 0
-167 57 0
167 -79 61 60 72 -12 -49 30 -2 26 -57 0
-168 50 0
-168 -25 0
-168 53 0
-168 58 0
-168 52 0
-168 63 0
-168 -31 0
-168 -66 0
-168 76 0
-168 -19 0
168 -50 25 -53 -58 -52 -63 31 66 -76 19 0
-169 54 0
-169 57 0
-169 13 0
-169 46 0
-169 6 0
-169 74 0
-169 36 0
-169 -100 0
-169 11 0
-169 97 0
169 -54 -57 -13 -46 -6 -74 -36 100 -11 -97 0
-170 -64 0
-170 -14 0
-170 -100 0
-170 -80 0
-170 65 0
-170 -87 0
-170 -72 0
-170 48 0
-170 22 0
-170 93 0
170 64 14 100 80 -65 87 72 -48 -22 -93 0
161 162 163 164 165 166 167 168 169 170 0
-171 69 0
-171 68 0
-171 -34 0
-171 66 0
-171 50 0
-171 21 0
-171 -92 0
-171 -42 0
-171 29 0
-171 71 0
171 -69 -68 34 -66 -50 -21 92 42 -29 -71 0
-172 -30 0
-172 -40 0
-172 -82 0
-172 35 0
-172 42 0
-172 21 0
-172 -86 0
-172 -47 0
-172 65 0
-172 -54 0
172 30 40 82 -35 -42 -21 86 47 -65 54 0
-173 26 0
-173 83 0
-173 35 0
-173 54 0
-173 42 0
-173 78 0
-173 -19 0
-173 67 0
-173 68 0
-173 -36 0
173 -26 -83 -35 -54 -42 -78 19 -67 -68 36 0
-174 41 0
-174 -40 0
-174 -93 0
-174 -4 0
-174 81 0
-174 -10 0
-174 8 0
-174 -69 0
-174 39 0
-174 53 0
174 -41 40 93 4 -81 10 -8 69 -39 -53 0
-175 8 0
-175 74 0
-175 -6 0
-175 -73 0
-175 40 0
-175 -27 0
-175 95 0
-175 -83 0
-175 -2 0
-175 -39 0
175 -8 -74 6 73 -40 27 -95 83 2 39 0
-176 -65 0
-176 -87 0
-176 -50 0
-176 18 0
-176 -9 0
-176 -69 0
-176 -66 0
-176 -62 0
-176 1 0
-176 30 0
176 65 87 50 -18 9 69 66 62 -1 -30 0
-177 -41 0
-177 -15 0
-177 78 0
-177 -50 0
-177 -69 0
-177 -8 0
-177 39 0
-177 28 0
-177 -55 0
-177 10 0
177 41 15 -78 50 69 8 -39 -28 55 -10 0
-178 -8 0
-178 51 0
-178 -95 0
-178 66 0
-178 -78 0
-178 -57 0
-178 99 0
-178 -13 0
-178 -3 0
-178 -20 0
178 8 -51 95 -66 78 57 -99 13 3 20 0
-179 -95 0
-179 -49 0
-179 100 0
-179 -71 0
-179 -55 0
-179 54 0
-179 -1 0
-179 -67 0
-179 45 0
-179 -87 0
179 95 49 -100 71 55 -54 1 67 -45 87 0
-180 -9 0
-180 -16 0
-180 2 0
-180 40 0
-180 -57 0
-180 -83 0
-180 74 0
-180 -35 0
-180 31 0
-180 -67 0
180 9 16 -2 -40 57 83 -74 35 -31 67 0
171 172 173 174 175 176 177 178 179 180 0
-181 -27 0
-181 69 0
-181 -19 0
-181 3 0
-181 -75 0
-181 -28 0
-181 -2 0
-181 55 0
-181 82 0
-181 79 0
181 27 -69 19 -3 75 28 2 -55 -82 -79 0
-182 -2 0
-182 25 0
-182 -11 0
-182 52 0
-182 63 0
-182 76 0
-182 50 0
-182 84 0
-182 80 0
-182 -9 0
182 2 -25 11 -52 -63 -76 -50 -84 -80 9 0
-183 79 0
-183 68 0
-183 10 0
-183 -91 0
-183 4 0
-183 -94 0
-183 -12 0
-183 5 0
-183 -82 0
-183 31 0
183 -79 -68 -10 91 -4 94 12 -5 82 -31 0
-184 -34 0
-184 21 0
-184 68 0
-184 7 0
-184 -44 0
-184 -84 0
-184 -64 0
-184 93 0
-184 -25 0
-184 99 0
184 34 -21 -68 -7 44 84 64 -93 25 -99 0
-185 15 0
-185 50 0
-185 78 0
-185 -85 0
-185 10 0
-185 3 0
-185 61 0
-185 95 0
-185 -57 0
-185 17 0
185 -15 -50 -78 85 -10 -3 -61 -95 57 -17 0
-186 97 0
-186 -14 0
-186 -93 0
-186 50 0
-186 -42 0
-186 29 0
-186 3 0
-186 75 0
-186 59 0
-186 81 0
186 -97 14 93 -50 42 -29 -3 -75 -59 -81 0
-187 72 0
-187 90 0
-187 86 0
-187 78 0
-187 -5 0
-187 51 0
-187 87 0
-187 -85 0
-187 82 0
-187 24 0
187 -72 -90 -86 -78 5 -51 -87 85 -82 -24 0
-188 -11 0
-188 -54 0
-188 -56 0
-188 -66 0
-188 -40 0
-188 53 0
-188 -17 0
-188 -87 0
-188 63 0
-188 -46 0
188 11 54 56 66 40 -53 17 87 -63 46 0
-189 -92 0
-189 -8 0
-189 -20 0
-189 -75 0
-189 71 0
-189 -14 0
-189 93 0
-189 -34 0
-189 -35 0
-189 86 0
189 92 8 20 75 -71 14 -93 34 35 -86 0
-190 73 0
-190 -13 0
-190 -76 0
-190 59 0
-190 -85 0
-190 -7 0
-190 -71 0
-190 84 0
-190 -74 0
-190 -30 0
190 -73 13 76 -59 85 7 71 -84 74 30 0
181 182 183 184 185 186 187 188 189 190 0
-191 -96 0
-191 75 0
-191 -100 0
-191 65 0
-191 56 0
-191 -28 0
-191 95 0
-191 -71 0
-191 52 0
-191 91 0
191 96 -75 100 -65 -56 28 -95 71 -52 -91 0
-192 -38 0
-192 -14 0
-192 39 0
-192 65 0
-192 -40 0
-192 -70 0
-192 55 0
-192 47 0
-192 42 0
-192 -76 0
192 38 14 -39 -65 40 70 -55 -47 -42 76 0
-193 88 0
-193 -95 0
-193 -50 0
-193 -7 0
-193 28 0
-193 -90 0
-193 21 0
-193 -25 0
-193 5 0
-193 66 0
193 -88 95 50 7 -28 90 -21 25 -5 -66 0
-194 -95 0
-194 -64 0
-194 8 0
-194 88 0
-194 99 0
-194 63 0
-194 -2 0
-194 -77 0
-194 34 0
-194 92 0
194 95 64 -8 -88 -99 -63 2 77 -34 -92 0
-195 -91 0
-195 46 0
-195 10 0
-195 25 0
-195 20 0
-195 -73 0
-195 -76 0
-195 -21 0
-195 -54 0
-195 -58 0
195 91 -46 -10 -25 -20 73 76 21 54 58 0
-196 -85 0
-196 -46 0
-196 10 0
-196 -12 0
-196 -62 0
-196 -98 0
-196 57 0
-196 -48 0
-196 65 0
-196 16 0
196 85 46 -10 12 62 98 -57 48 -65 -16 0
-197 39 0
-197 15 0
-197 -69 0
-197 -17 0
-197 5 0
-197 -66 0
-197 -10 0
-197 29 0
-197 45 0
-197 47 0
197 -39 -15 69 17 -5 66 10 -29 -45 -47 0
-198 79 0
-198 -77 0
-198 -2 0
-198 22 0
-198 -69 0
-198 60 0
-198 -42 0
-198 38 0
-198 67 0
-198 -16 0
198 -79 77 2 -22 69 -60 42 -38 -67 16 0
-199 45 0
-199 47 0
-199 -82 0
-199 96 0
-199 78 0
-199 -27 0
-199 24 0
-199 9 0
-199 -66 0
-199 -31 0
199 -45 -47 82 -96 -78 27 -24 -9 66 31 0
-200 -59 0
-200 -94 0
-200 -45 0
-200 65 0
-200 -57 0
-200 -58 0
-200 -55 0
-200 -13 0
-200 -66 0
-200 -2 0
200 59 94 45 -65 57 58 55 13 66 2 0
191 192 193 194 195 196 197 198 199 200 0
